param:	TIME:	Ts	Te:=
1	0   108
2	108   216
3	216   324
4	324   432
5	432   540
;
param:	NODE:	r	st	WS	WE:=
0	0	0	0	540
1	1881	21	14	335
2	777	9	68	404
3	411	5	77	393
4	2067	23	50	398
5	1113	12	31	348
6	309	3	20	353
7	1326	15	53	378
8	1542	17	83	419
9	1812	20	33	365
10	1812	20	76	427
;
param: VEHICLE:	Ch	Lh	Ph	ch:=
1	10000	150	2.2384e-005	2.66374
2	15000	200	1.79961e-005	2.66374
;
param q_real:=2;
param	nth:=9;
param	nth1:=10;
param:	ARC:	D:=
1	2	21.730000
1	6	46.650002
1	5	55.779999
1	7	57.169998
1	4	75.250000
1	8	83.260002
1	3	83.529999
1	9	92.540001
1	10	92.660004
2	1	21.480000
2	6	38.049999
2	7	46.580002
2	5	64.070000
2	4	83.360001
2	8	85.800003
2	3	91.820000
2	10	92.820000
2	9	113.480003
3	4	14.220000
3	5	29.330000
3	8	32.959999
3	10	38.000000
3	9	56.360001
3	6	67.721001
3	7	77.089996
3	1	83.889999
3	2	91.739998
4	3	14.240000
4	5	20.940001
4	8	21.200001
4	10	27.950001
4	6	57.311001
4	9	63.029999
4	7	64.470001
4	1	75.500000
4	2	83.349998
5	4	21.219999
5	3	29.500000
5	8	32.830002
5	10	42.200001
5	6	45.790001
5	1	56.180000
5	7	57.939999
5	9	61.290001
5	2	64.029999
6	7	13.390000
6	2	38.279999
6	5	45.900002
6	1	47.410000
6	8	51.619999
6	10	56.490002
6	4	56.841000
6	3	67.600998
6	9	104.900002
7	6	13.420000
7	2	46.209999
7	8	57.090000
7	1	57.500000
7	5	57.660000
7	10	61.000000
7	4	64.500000
7	3	77.271004
7	9	115.070000
8	10	10.570000
8	4	21.290001
8	5	32.810001
8	3	33.130001
8	6	51.270000
8	7	56.560001
8	9	81.540001
8	1	83.430000
8	2	85.800003
9	3	56.130001
9	5	61.439999
9	4	62.650002
9	8	81.489998
9	10	90.250000
9	1	92.800003
9	6	105.419998
9	2	113.400002
9	7	115.459999
10	8	10.900000
10	4	28.090000
10	3	38.040001
10	5	42.310001
10	6	56.570000
10	7	60.250000
10	9	90.839996
10	2	92.930000
10	1	92.930000
0	3	10.720000
0	4	17.139999
0	8	34.759998
0	5	35.840000
0	10	35.860001
0	9	59.560001
0	6	72.459999
0	7	79.370003
0	1	90.400002
0	2	98.250000
3	0	10.690000
4	0	16.719999
8	0	34.549999
10	0	35.930000
5	0	35.939999
9	0	59.299999
6	0	72.089996
7	0	79.199997
1	0	89.970001
2	0	98.260002
;
param:	v:=
1	2	1	79
1	2	2	55
1	2	3	29
1	2	4	32
1	2	5	75
1	6	1	100
1	6	2	43
1	6	3	28
1	6	4	41
1	6	5	86
1	5	1	96
1	5	2	34
1	5	3	29
1	5	4	59
1	5	5	84
1	7	1	96
1	7	2	33
1	7	3	15
1	7	4	36
1	7	5	89
1	4	1	83
1	4	2	43
1	4	3	17
1	4	4	38
1	4	5	97
1	8	1	83
1	8	2	52
1	8	3	26
1	8	4	55
1	8	5	84
1	3	1	76
1	3	2	34
1	3	3	20
1	3	4	54
1	3	5	76
1	9	1	85
1	9	2	37
1	9	3	23
1	9	4	57
1	9	5	98
1	10	1	77
1	10	2	41
1	10	3	25
1	10	4	37
1	10	5	89
2	1	1	85
2	1	2	48
2	1	3	23
2	1	4	56
2	1	5	86
2	6	1	81
2	6	2	54
2	6	3	17
2	6	4	58
2	6	5	95
2	7	1	98
2	7	2	30
2	7	3	17
2	7	4	46
2	7	5	95
2	5	1	81
2	5	2	50
2	5	3	24
2	5	4	46
2	5	5	89
2	4	1	94
2	4	2	31
2	4	3	15
2	4	4	31
2	4	5	89
2	8	1	98
2	8	2	44
2	8	3	25
2	8	4	34
2	8	5	97
2	3	1	77
2	3	2	35
2	3	3	14
2	3	4	45
2	3	5	92
2	10	1	74
2	10	2	33
2	10	3	18
2	10	4	30
2	10	5	89
2	9	1	79
2	9	2	53
2	9	3	24
2	9	4	32
2	9	5	96
3	4	1	100
3	4	2	49
3	4	3	30
3	4	4	32
3	4	5	71
3	5	1	100
3	5	2	33
3	5	3	27
3	5	4	45
3	5	5	77
3	8	1	78
3	8	2	58
3	8	3	20
3	8	4	33
3	8	5	77
3	10	1	73
3	10	2	34
3	10	3	30
3	10	4	45
3	10	5	82
3	9	1	100
3	9	2	53
3	9	3	19
3	9	4	43
3	9	5	73
3	6	1	95
3	6	2	33
3	6	3	15
3	6	4	33
3	6	5	76
3	7	1	75
3	7	2	56
3	7	3	11
3	7	4	50
3	7	5	95
3	1	1	86
3	1	2	60
3	1	3	20
3	1	4	49
3	1	5	88
3	2	1	89
3	2	2	47
3	2	3	29
3	2	4	39
3	2	5	93
4	3	1	79
4	3	2	58
4	3	3	22
4	3	4	51
4	3	5	84
4	5	1	73
4	5	2	44
4	5	3	14
4	5	4	57
4	5	5	85
4	8	1	99
4	8	2	60
4	8	3	13
4	8	4	44
4	8	5	95
4	10	1	73
4	10	2	50
4	10	3	13
4	10	4	59
4	10	5	83
4	6	1	83
4	6	2	56
4	6	3	26
4	6	4	51
4	6	5	78
4	9	1	91
4	9	2	40
4	9	3	24
4	9	4	38
4	9	5	97
4	7	1	73
4	7	2	35
4	7	3	20
4	7	4	44
4	7	5	87
4	1	1	89
4	1	2	42
4	1	3	16
4	1	4	45
4	1	5	88
4	2	1	95
4	2	2	38
4	2	3	26
4	2	4	36
4	2	5	83
5	4	1	93
5	4	2	53
5	4	3	20
5	4	4	38
5	4	5	90
5	3	1	71
5	3	2	36
5	3	3	14
5	3	4	33
5	3	5	71
5	8	1	84
5	8	2	45
5	8	3	23
5	8	4	40
5	8	5	80
5	10	1	72
5	10	2	41
5	10	3	26
5	10	4	32
5	10	5	95
5	6	1	95
5	6	2	31
5	6	3	28
5	6	4	58
5	6	5	74
5	1	1	79
5	1	2	60
5	1	3	10
5	1	4	54
5	1	5	85
5	7	1	84
5	7	2	48
5	7	3	27
5	7	4	48
5	7	5	84
5	9	1	71
5	9	2	34
5	9	3	10
5	9	4	39
5	9	5	78
5	2	1	74
5	2	2	53
5	2	3	14
5	2	4	46
5	2	5	70
6	7	1	75
6	7	2	60
6	7	3	12
6	7	4	34
6	7	5	82
6	2	1	74
6	2	2	42
6	2	3	11
6	2	4	41
6	2	5	81
6	5	1	98
6	5	2	55
6	5	3	23
6	5	4	39
6	5	5	93
6	1	1	93
6	1	2	31
6	1	3	14
6	1	4	47
6	1	5	98
6	8	1	79
6	8	2	31
6	8	3	23
6	8	4	46
6	8	5	86
6	10	1	89
6	10	2	31
6	10	3	28
6	10	4	60
6	10	5	93
6	4	1	71
6	4	2	58
6	4	3	13
6	4	4	44
6	4	5	81
6	3	1	92
6	3	2	39
6	3	3	16
6	3	4	56
6	3	5	94
6	9	1	81
6	9	2	52
6	9	3	16
6	9	4	45
6	9	5	86
7	6	1	97
7	6	2	59
7	6	3	12
7	6	4	47
7	6	5	92
7	2	1	93
7	2	2	48
7	2	3	28
7	2	4	56
7	2	5	85
7	8	1	94
7	8	2	58
7	8	3	28
7	8	4	38
7	8	5	100
7	1	1	99
7	1	2	60
7	1	3	19
7	1	4	37
7	1	5	81
7	5	1	73
7	5	2	56
7	5	3	25
7	5	4	57
7	5	5	71
7	10	1	75
7	10	2	34
7	10	3	21
7	10	4	47
7	10	5	82
7	4	1	78
7	4	2	51
7	4	3	11
7	4	4	52
7	4	5	76
7	3	1	85
7	3	2	56
7	3	3	15
7	3	4	37
7	3	5	77
7	9	1	94
7	9	2	49
7	9	3	24
7	9	4	43
7	9	5	99
8	10	1	75
8	10	2	48
8	10	3	17
8	10	4	47
8	10	5	98
8	4	1	79
8	4	2	45
8	4	3	23
8	4	4	34
8	4	5	79
8	5	1	99
8	5	2	50
8	5	3	24
8	5	4	44
8	5	5	82
8	3	1	80
8	3	2	47
8	3	3	29
8	3	4	50
8	3	5	78
8	6	1	81
8	6	2	47
8	6	3	23
8	6	4	56
8	6	5	99
8	7	1	98
8	7	2	54
8	7	3	18
8	7	4	34
8	7	5	87
8	9	1	89
8	9	2	54
8	9	3	24
8	9	4	31
8	9	5	76
8	1	1	83
8	1	2	49
8	1	3	17
8	1	4	34
8	1	5	90
8	2	1	84
8	2	2	59
8	2	3	11
8	2	4	31
8	2	5	95
9	3	1	78
9	3	2	35
9	3	3	24
9	3	4	38
9	3	5	77
9	5	1	92
9	5	2	50
9	5	3	21
9	5	4	31
9	5	5	98
9	4	1	81
9	4	2	39
9	4	3	26
9	4	4	33
9	4	5	94
9	8	1	94
9	8	2	44
9	8	3	26
9	8	4	42
9	8	5	96
9	10	1	100
9	10	2	47
9	10	3	15
9	10	4	35
9	10	5	90
9	1	1	96
9	1	2	60
9	1	3	17
9	1	4	49
9	1	5	91
9	6	1	74
9	6	2	32
9	6	3	20
9	6	4	53
9	6	5	77
9	2	1	83
9	2	2	38
9	2	3	29
9	2	4	59
9	2	5	77
9	7	1	91
9	7	2	48
9	7	3	10
9	7	4	36
9	7	5	83
10	8	1	74
10	8	2	30
10	8	3	13
10	8	4	35
10	8	5	99
10	4	1	89
10	4	2	42
10	4	3	24
10	4	4	59
10	4	5	95
10	3	1	96
10	3	2	47
10	3	3	22
10	3	4	49
10	3	5	74
10	5	1	70
10	5	2	50
10	5	3	18
10	5	4	52
10	5	5	96
10	6	1	73
10	6	2	48
10	6	3	20
10	6	4	52
10	6	5	85
10	7	1	77
10	7	2	46
10	7	3	30
10	7	4	35
10	7	5	94
10	9	1	80
10	9	2	44
10	9	3	20
10	9	4	46
10	9	5	96
10	2	1	93
10	2	2	47
10	2	3	24
10	2	4	33
10	2	5	72
10	1	1	75
10	1	2	48
10	1	3	10
10	1	4	42
10	1	5	82
0	3	1	85
0	3	2	58
0	3	3	17
0	3	4	55
0	3	5	95
0	4	1	95
0	4	2	40
0	4	3	10
0	4	4	40
0	4	5	79
0	8	1	74
0	8	2	48
0	8	3	14
0	8	4	52
0	8	5	97
0	5	1	99
0	5	2	44
0	5	3	30
0	5	4	49
0	5	5	92
0	10	1	98
0	10	2	45
0	10	3	26
0	10	4	48
0	10	5	80
0	9	1	79
0	9	2	35
0	9	3	12
0	9	4	40
0	9	5	86
0	6	1	97
0	6	2	48
0	6	3	22
0	6	4	36
0	6	5	79
0	7	1	94
0	7	2	53
0	7	3	27
0	7	4	44
0	7	5	83
0	1	1	94
0	1	2	30
0	1	3	20
0	1	4	53
0	1	5	98
0	2	1	100
0	2	2	51
0	2	3	26
0	2	4	57
0	2	5	95
3	0	1	81
3	0	2	46
3	0	3	17
3	0	4	36
3	0	5	99
4	0	1	80
4	0	2	45
4	0	3	21
4	0	4	45
4	0	5	77
8	0	1	98
8	0	2	45
8	0	3	25
8	0	4	40
8	0	5	98
10	0	1	86
10	0	2	44
10	0	3	24
10	0	4	44
10	0	5	75
5	0	1	91
5	0	2	39
5	0	3	26
5	0	4	36
5	0	5	90
9	0	1	80
9	0	2	31
9	0	3	27
9	0	4	31
9	0	5	98
6	0	1	80
6	0	2	41
6	0	3	17
6	0	4	58
6	0	5	98
7	0	1	93
7	0	2	59
7	0	3	28
7	0	4	56
7	0	5	70
1	0	1	82
1	0	2	38
1	0	3	24
1	0	4	58
1	0	5	97
2	0	1	84
2	0	2	52
2	0	3	14
2	0	4	43
2	0	5	81
;
param:	g:=
1	2	1	1	0.415716
1	2	1	2	0.763383
1	2	2	1	0.289880
1	2	2	2	0.384419
1	2	3	1	0.250401
1	2	3	2	0.298951
1	2	4	1	0.246870
1	2	4	2	0.290921
1	2	5	1	0.390210
1	2	5	2	0.680469
1	6	1	1	0.576712
1	6	1	2	1.327989
1	6	2	1	0.255055
1	6	2	2	0.302151
1	6	3	1	0.252324
1	6	3	2	0.302739
1	6	4	1	0.251580
1	6	4	2	0.295478
1	6	5	1	0.464402
1	6	5	2	0.927456
1	5	1	1	0.542629
1	5	1	2	1.203706
1	5	2	1	0.246131
1	5	2	2	0.288274
1	5	3	1	0.250401
1	5	3	2	0.298951
1	5	4	1	0.306076
1	5	4	2	0.427793
1	5	5	1	0.449973
1	5	5	2	0.878115
1	7	1	1	0.542629
1	7	1	2	1.203706
1	7	2	1	0.246353
1	7	2	2	0.289331
1	7	3	1	0.340328
1	7	3	2	0.413505
1	7	4	1	0.246504
1	7	4	2	0.287741
1	7	5	1	0.486811
1	7	5	2	1.005161
1	4	1	1	0.442913
1	4	1	2	0.854183
1	4	2	1	0.255055
1	4	2	2	0.302151
1	4	3	1	0.314502
1	4	3	2	0.386980
1	4	4	1	0.247870
1	4	4	2	0.289292
1	4	5	1	0.551002
1	4	5	2	1.234039
1	8	1	1	0.442913
1	8	1	2	0.854183
1	8	2	1	0.279143
1	8	2	2	0.357106
1	8	3	1	0.257483
1	8	3	2	0.312044
1	8	4	1	0.289880
1	8	4	2	0.384419
1	8	5	1	0.449973
1	8	5	2	0.878115
1	3	1	1	0.396426
1	3	1	2	0.700458
1	3	2	1	0.246131
1	3	2	2	0.288274
1	3	3	1	0.287219
1	3	3	2	0.355115
1	3	4	1	0.286163
1	3	4	2	0.374817
1	3	5	1	0.396426
1	3	5	2	0.700458
1	9	1	1	0.457136
1	9	1	2	0.902539
1	9	2	1	0.247069
1	9	2	2	0.288257
1	9	3	1	0.269185
1	9	3	2	0.330552
1	9	4	1	0.297717
1	9	4	2	0.405114
1	9	5	1	0.559473
1	9	5	2	1.264864
1	10	1	1	0.402749
1	10	1	2	0.720940
1	10	2	1	0.251580
1	10	2	2	0.295478
1	10	3	1	0.260803
1	10	3	2	0.317588
1	10	4	1	0.247069
1	10	4	2	0.288257
1	10	5	1	0.486811
1	10	5	2	1.005161
2	1	1	1	0.457136
2	1	1	2	0.902539
2	1	2	1	0.266846
2	1	2	2	0.327669
2	1	3	1	0.269185
2	1	3	2	0.330552
2	1	4	1	0.293733
2	1	4	2	0.394518
2	1	5	1	0.464402
2	1	5	2	0.927456
2	6	1	1	0.429105
2	6	1	2	0.807797
2	6	2	1	0.286163
2	6	2	2	0.374817
2	6	3	1	0.314502
2	6	3	2	0.386980
2	6	4	1	0.301833
2	6	4	2	0.416205
2	6	5	1	0.534355
2	6	5	2	1.173866
2	7	1	1	0.559473
2	7	1	2	1.264864
2	7	2	1	0.248870
2	7	2	2	0.295725
2	7	3	1	0.314502
2	7	3	2	0.386980
2	7	4	1	0.261626
2	7	4	2	0.315953
2	7	5	1	0.534355
2	7	5	2	1.173866
2	5	1	1	0.429105
2	5	1	2	0.807797
2	5	2	1	0.272696
2	5	2	2	0.341388
2	5	3	1	0.264683
2	5	3	2	0.323750
2	5	4	1	0.261626
2	5	4	2	0.315953
2	5	5	1	0.486811
2	5	5	2	1.005161
2	4	1	1	0.526181
2	4	1	2	1.144518
2	4	2	1	0.247702
2	4	2	2	0.293050
2	4	3	1	0.340328
2	4	3	2	0.413505
2	4	4	1	0.247702
2	4	4	2	0.293050
2	4	5	1	0.486811
2	4	5	2	1.005161
2	8	1	1	0.559473
2	8	1	2	1.264864
2	8	2	1	0.257070
2	8	2	2	0.306247
2	8	3	1	0.260803
2	8	3	2	0.317588
2	8	4	1	0.246131
2	8	4	2	0.288274
2	8	5	1	0.551002
2	8	5	2	1.234039
2	3	1	1	0.402749
2	3	1	2	0.720940
2	3	2	1	0.246187
2	3	2	2	0.287745
2	3	3	1	0.356456
2	3	3	2	0.428864
2	3	4	1	0.259262
2	3	4	2	0.310848
2	3	5	1	0.510132
2	3	5	2	1.087298
2	10	1	1	0.384103
2	10	1	2	0.660973
2	10	2	1	0.246353
2	10	2	2	0.289331
2	10	3	1	0.304119
2	10	3	2	0.375426
2	10	4	1	0.248870
2	10	4	2	0.295725
2	10	5	1	0.486811
2	10	5	2	1.005161
2	9	1	1	0.415716
2	9	1	2	0.763383
2	9	2	1	0.282583
2	9	2	2	0.365713
2	9	3	1	0.264683
2	9	3	2	0.323750
2	9	4	1	0.246870
2	9	4	2	0.290921
2	9	5	1	0.542629
2	9	5	2	1.203706
3	4	1	1	0.576712
3	4	1	2	1.327989
3	4	2	1	0.269695
3	4	2	2	0.334278
3	4	3	1	0.248870
3	4	3	2	0.295725
3	4	4	1	0.246870
3	4	4	2	0.290921
3	4	5	1	0.366437
3	4	5	2	0.605446
3	5	1	1	0.576712
3	5	1	2	1.327989
3	5	2	1	0.246353
3	5	2	2	0.289331
3	5	3	1	0.254672
3	5	3	2	0.307099
3	5	4	1	0.259262
3	5	4	2	0.310848
3	5	5	1	0.402749
3	5	5	2	0.720940
3	8	1	1	0.409180
3	8	1	2	0.741915
3	8	2	1	0.301833
3	8	2	2	0.416205
3	8	3	1	0.287219
3	8	3	2	0.355115
3	8	4	1	0.246353
3	8	4	2	0.289331
3	8	5	1	0.402749
3	8	5	2	0.720940
3	10	1	1	0.378104
3	10	1	2	0.641971
3	10	2	1	0.246131
3	10	2	2	0.288274
3	10	3	1	0.248870
3	10	3	2	0.295725
3	10	4	1	0.259262
3	10	4	2	0.310848
3	10	5	1	0.435957
3	10	5	2	0.830744
3	9	1	1	0.576712
3	9	1	2	1.327989
3	9	2	1	0.282583
3	9	2	2	0.365713
3	9	3	1	0.295088
3	9	3	2	0.364835
3	9	4	1	0.255055
3	9	4	2	0.302151
3	9	5	1	0.378104
3	9	5	2	0.641971
3	6	1	1	0.534355
3	6	1	2	1.173866
3	6	2	1	0.246353
3	6	2	2	0.289331
3	6	3	1	0.340328
3	6	3	2	0.413505
3	6	4	1	0.246353
3	6	4	2	0.289331
3	6	5	1	0.396426
3	6	5	2	0.700458
3	7	1	1	0.390210
3	7	1	2	0.680469
3	7	2	1	0.293733
3	7	2	2	0.394518
3	7	3	1	0.424417
3	7	3	2	0.487653
3	7	4	1	0.272696
3	7	4	2	0.341388
3	7	5	1	0.534355
3	7	5	2	1.173866
3	1	1	1	0.464402
3	1	1	2	0.927456
3	1	2	1	0.310446
3	1	2	2	0.439877
3	1	3	1	0.287219
3	1	3	2	0.355115
3	1	4	1	0.269695
3	1	4	2	0.334278
3	1	5	1	0.479240
3	1	5	2	0.978767
3	2	1	1	0.486811
3	2	1	2	1.005161
3	2	2	1	0.264155
3	2	2	2	0.321560
3	2	3	1	0.250401
3	2	3	2	0.298951
3	2	4	1	0.248895
3	2	4	2	0.290842
3	2	5	1	0.518107
3	2	5	2	1.115662
4	3	1	1	0.415716
4	3	1	2	0.763383
4	3	2	1	0.301833
4	3	2	2	0.416205
4	3	3	1	0.274382
4	3	3	2	0.338023
4	3	4	1	0.275847
4	3	4	2	0.348998
4	3	5	1	0.449973
4	3	5	2	0.878115
4	5	1	1	0.378104
4	5	1	2	0.641971
4	5	2	1	0.257070
4	5	2	2	0.306247
4	5	3	1	0.356456
4	5	3	2	0.428864
4	5	4	1	0.297717
4	5	4	2	0.405114
4	5	5	1	0.457136
4	5	5	2	0.902539
4	8	1	1	0.568043
4	8	1	2	1.296180
4	8	2	1	0.310446
4	8	2	2	0.439877
4	8	3	1	0.375359
4	8	3	2	0.446007
4	8	4	1	0.257070
4	8	4	2	0.306247
4	8	5	1	0.534355
4	8	5	2	1.173866
4	10	1	1	0.378104
4	10	1	2	0.641971
4	10	2	1	0.272696
4	10	2	2	0.341388
4	10	3	1	0.375359
4	10	3	2	0.446007
4	10	4	1	0.306076
4	10	4	2	0.427793
4	10	5	1	0.442913
4	10	5	2	0.854183
4	6	1	1	0.442913
4	6	1	2	0.854183
4	6	2	1	0.293733
4	6	2	2	0.394518
4	6	3	1	0.257483
4	6	3	2	0.312044
4	6	4	1	0.275847
4	6	4	2	0.348998
4	6	5	1	0.409180
4	6	5	2	0.741915
4	9	1	1	0.502258
4	9	1	2	1.059427
4	9	2	1	0.250135
4	9	2	2	0.292905
4	9	3	1	0.264683
4	9	3	2	0.323750
4	9	4	1	0.247870
4	9	4	2	0.289292
4	9	5	1	0.551002
4	9	5	2	1.234039
4	7	1	1	0.378104
4	7	1	2	0.641971
4	7	2	1	0.246187
4	7	2	2	0.287745
4	7	3	1	0.287219
4	7	3	2	0.355115
4	7	4	1	0.257070
4	7	4	2	0.306247
4	7	5	1	0.471770
4	7	5	2	0.952865
4	1	1	1	0.486811
4	1	1	2	1.005161
4	1	2	1	0.253223
4	1	2	2	0.298561
4	1	3	1	0.326472
4	1	3	2	0.399619
4	1	4	1	0.259262
4	1	4	2	0.310848
4	1	5	1	0.479240
4	1	5	2	0.978767
4	2	1	1	0.534355
4	2	1	2	1.173866
4	2	2	1	0.247870
4	2	2	2	0.289292
4	2	3	1	0.257483
4	2	3	2	0.312044
4	2	4	1	0.246504
4	2	4	2	0.287741
4	2	5	1	0.442913
4	2	5	2	0.854183
5	4	1	1	0.518107
5	4	1	2	1.115662
5	4	2	1	0.282583
5	4	2	2	0.365713
5	4	3	1	0.287219
5	4	3	2	0.355115
5	4	4	1	0.247870
5	4	4	2	0.289292
5	4	5	1	0.494484
5	4	5	2	1.032048
5	3	1	1	0.366437
5	3	1	2	0.605446
5	3	2	1	0.246504
5	3	2	2	0.287741
5	3	3	1	0.356456
5	3	3	2	0.428864
5	3	4	1	0.246353
5	3	4	2	0.289331
5	3	5	1	0.366437
5	3	5	2	0.605446
5	8	1	1	0.449973
5	8	1	2	0.878115
5	8	2	1	0.259262
5	8	2	2	0.310848
5	8	3	1	0.269185
5	8	3	2	0.330552
5	8	4	1	0.250135
5	8	4	2	0.292905
5	8	5	1	0.422358
5	8	5	2	0.785344
5	10	1	1	0.372215
5	10	1	2	0.623462
5	10	2	1	0.251580
5	10	2	2	0.295478
5	10	3	1	0.257483
5	10	3	2	0.312044
5	10	4	1	0.246870
5	10	4	2	0.290921
5	10	5	1	0.534355
5	10	5	2	1.173866
5	6	1	1	0.534355
5	6	1	2	1.173866
5	6	2	1	0.247702
5	6	2	2	0.293050
5	6	3	1	0.252324
5	6	3	2	0.302739
5	6	4	1	0.301833
5	6	4	2	0.416205
5	6	5	1	0.384103
5	6	5	2	0.660973
5	1	1	1	0.415716
5	1	1	2	0.763383
5	1	2	1	0.310446
5	1	2	2	0.439877
5	1	3	1	0.456768
5	1	3	2	0.513825
5	1	4	1	0.286163
5	1	4	2	0.374817
5	1	5	1	0.457136
5	1	5	2	0.902539
5	7	1	1	0.449973
5	7	1	2	0.878115
5	7	2	1	0.266846
5	7	2	2	0.327669
5	7	3	1	0.254672
5	7	3	2	0.307099
5	7	4	1	0.266846
5	7	4	2	0.327669
5	7	5	1	0.449973
5	7	5	2	0.878115
5	9	1	1	0.366437
5	9	1	2	0.605446
5	9	2	1	0.246131
5	9	2	2	0.288274
5	9	3	1	0.456768
5	9	3	2	0.513825
5	9	4	1	0.248895
5	9	4	2	0.290842
5	9	5	1	0.409180
5	9	5	2	0.741915
5	2	1	1	0.384103
5	2	1	2	0.660973
5	2	2	1	0.282583
5	2	2	2	0.365713
5	2	3	1	0.356456
5	2	3	2	0.428864
5	2	4	1	0.261626
5	2	4	2	0.315953
5	2	5	1	0.360770
5	2	5	2	0.587924
6	7	1	1	0.390210
6	7	1	2	0.680469
6	7	2	1	0.310446
6	7	2	2	0.439877
6	7	3	1	0.397708
6	7	3	2	0.465383
6	7	4	1	0.246131
6	7	4	2	0.288274
6	7	5	1	0.435957
6	7	5	2	0.830744
6	2	1	1	0.384103
6	2	1	2	0.660973
6	2	2	1	0.253223
6	2	2	2	0.298561
6	2	3	1	0.424417
6	2	3	2	0.487653
6	2	4	1	0.251580
6	2	4	2	0.295478
6	2	5	1	0.429105
6	2	5	2	0.807797
6	5	1	1	0.559473
6	5	1	2	1.264864
6	5	2	1	0.289880
6	5	2	2	0.384419
6	5	3	1	0.269185
6	5	3	2	0.330552
6	5	4	1	0.248895
6	5	4	2	0.290842
6	5	5	1	0.518107
6	5	5	2	1.115662
6	1	1	1	0.518107
6	1	1	2	1.115662
6	1	2	1	0.247702
6	1	2	2	0.293050
6	1	3	1	0.356456
6	1	3	2	0.428864
6	1	4	1	0.264155
6	1	4	2	0.321560
6	1	5	1	0.559473
6	1	5	2	1.264864
6	8	1	1	0.415716
6	8	1	2	0.763383
6	8	2	1	0.247702
6	8	2	2	0.293050
6	8	3	1	0.269185
6	8	3	2	0.330552
6	8	4	1	0.261626
6	8	4	2	0.315953
6	8	5	1	0.464402
6	8	5	2	0.927456
6	10	1	1	0.486811
6	10	1	2	1.005161
6	10	2	1	0.247702
6	10	2	2	0.293050
6	10	3	1	0.252324
6	10	3	2	0.302739
6	10	4	1	0.310446
6	10	4	2	0.439877
6	10	5	1	0.518107
6	10	5	2	1.115662
6	4	1	1	0.366437
6	4	1	2	0.605446
6	4	2	1	0.301833
6	4	2	2	0.416205
6	4	3	1	0.375359
6	4	3	2	0.446007
6	4	4	1	0.257070
6	4	4	2	0.306247
6	4	5	1	0.429105
6	4	5	2	0.807797
6	3	1	1	0.510132
6	3	1	2	1.087298
6	3	2	1	0.248895
6	3	2	2	0.290842
6	3	3	1	0.326472
6	3	3	2	0.399619
6	3	4	1	0.293733
6	3	4	2	0.394518
6	3	5	1	0.526181
6	3	5	2	1.144518
6	9	1	1	0.429105
6	9	1	2	0.807797
6	9	2	1	0.279143
6	9	2	2	0.357106
6	9	3	1	0.326472
6	9	3	2	0.399619
6	9	4	1	0.259262
6	9	4	2	0.310848
6	9	5	1	0.464402
6	9	5	2	0.927456
7	6	1	1	0.551002
7	6	1	2	1.234039
7	6	2	1	0.306076
7	6	2	2	0.427793
7	6	3	1	0.397708
7	6	3	2	0.465383
7	6	4	1	0.264155
7	6	4	2	0.321560
7	6	5	1	0.510132
7	6	5	2	1.087298
7	2	1	1	0.518107
7	2	1	2	1.115662
7	2	2	1	0.266846
7	2	2	2	0.327669
7	2	3	1	0.252324
7	2	3	2	0.302739
7	2	4	1	0.293733
7	2	4	2	0.394518
7	2	5	1	0.457136
7	2	5	2	0.902539
7	8	1	1	0.526181
7	8	1	2	1.144518
7	8	2	1	0.301833
7	8	2	2	0.416205
7	8	3	1	0.252324
7	8	3	2	0.302739
7	8	4	1	0.247870
7	8	4	2	0.289292
7	8	5	1	0.576712
7	8	5	2	1.327989
7	1	1	1	0.568043
7	1	1	2	1.296180
7	1	2	1	0.310446
7	1	2	2	0.439877
7	1	3	1	0.295088
7	1	3	2	0.364835
7	1	4	1	0.247069
7	1	4	2	0.288257
7	1	5	1	0.429105
7	1	5	2	0.807797
7	5	1	1	0.378104
7	5	1	2	0.641971
7	5	2	1	0.293733
7	5	2	2	0.394518
7	5	3	1	0.260803
7	5	3	2	0.317588
7	5	4	1	0.297717
7	5	4	2	0.405114
7	5	5	1	0.366437
7	5	5	2	0.605446
7	10	1	1	0.390210
7	10	1	2	0.680469
7	10	2	1	0.246131
7	10	2	2	0.288274
7	10	3	1	0.280358
7	10	3	2	0.346196
7	10	4	1	0.264155
7	10	4	2	0.321560
7	10	5	1	0.435957
7	10	5	2	0.830744
7	4	1	1	0.409180
7	4	1	2	0.741915
7	4	2	1	0.275847
7	4	2	2	0.348998
7	4	3	1	0.424417
7	4	3	2	0.487653
7	4	4	1	0.279143
7	4	4	2	0.357106
7	4	5	1	0.396426
7	4	5	2	0.700458
7	3	1	1	0.457136
7	3	1	2	0.902539
7	3	2	1	0.293733
7	3	2	2	0.394518
7	3	3	1	0.340328
7	3	3	2	0.413505
7	3	4	1	0.247069
7	3	4	2	0.288257
7	3	5	1	0.402749
7	3	5	2	0.720940
7	9	1	1	0.526181
7	9	1	2	1.144518
7	9	2	1	0.269695
7	9	2	2	0.334278
7	9	3	1	0.264683
7	9	3	2	0.323750
7	9	4	1	0.255055
7	9	4	2	0.302151
7	9	5	1	0.568043
7	9	5	2	1.296180
8	10	1	1	0.390210
8	10	1	2	0.680469
8	10	2	1	0.266846
8	10	2	2	0.327669
8	10	3	1	0.314502
8	10	3	2	0.386980
8	10	4	1	0.264155
8	10	4	2	0.321560
8	10	5	1	0.559473
8	10	5	2	1.264864
8	4	1	1	0.415716
8	4	1	2	0.763383
8	4	2	1	0.259262
8	4	2	2	0.310848
8	4	3	1	0.269185
8	4	3	2	0.330552
8	4	4	1	0.246131
8	4	4	2	0.288274
8	4	5	1	0.415716
8	4	5	2	0.763383
8	5	1	1	0.568043
8	5	1	2	1.296180
8	5	2	1	0.272696
8	5	2	2	0.341388
8	5	3	1	0.264683
8	5	3	2	0.323750
8	5	4	1	0.257070
8	5	4	2	0.306247
8	5	5	1	0.435957
8	5	5	2	0.830744
8	3	1	1	0.422358
8	3	1	2	0.785344
8	3	2	1	0.264155
8	3	2	2	0.321560
8	3	3	1	0.250401
8	3	3	2	0.298951
8	3	4	1	0.272696
8	3	4	2	0.341388
8	3	5	1	0.409180
8	3	5	2	0.741915
8	6	1	1	0.429105
8	6	1	2	0.807797
8	6	2	1	0.264155
8	6	2	2	0.321560
8	6	3	1	0.269185
8	6	3	2	0.330552
8	6	4	1	0.293733
8	6	4	2	0.394518
8	6	5	1	0.568043
8	6	5	2	1.296180
8	7	1	1	0.559473
8	7	1	2	1.264864
8	7	2	1	0.286163
8	7	2	2	0.374817
8	7	3	1	0.304119
8	7	3	2	0.375426
8	7	4	1	0.246131
8	7	4	2	0.288274
8	7	5	1	0.471770
8	7	5	2	0.952865
8	9	1	1	0.486811
8	9	1	2	1.005161
8	9	2	1	0.286163
8	9	2	2	0.374817
8	9	3	1	0.264683
8	9	3	2	0.323750
8	9	4	1	0.247702
8	9	4	2	0.293050
8	9	5	1	0.396426
8	9	5	2	0.700458
8	1	1	1	0.442913
8	1	1	2	0.854183
8	1	2	1	0.269695
8	1	2	2	0.334278
8	1	3	1	0.314502
8	1	3	2	0.386980
8	1	4	1	0.246131
8	1	4	2	0.288274
8	1	5	1	0.494484
8	1	5	2	1.032048
8	2	1	1	0.449973
8	2	1	2	0.878115
8	2	2	1	0.306076
8	2	2	2	0.427793
8	2	3	1	0.424417
8	2	3	2	0.487653
8	2	4	1	0.247702
8	2	4	2	0.293050
8	2	5	1	0.534355
8	2	5	2	1.173866
9	3	1	1	0.409180
9	3	1	2	0.741915
9	3	2	1	0.246187
9	3	2	2	0.287745
9	3	3	1	0.264683
9	3	3	2	0.323750
9	3	4	1	0.247870
9	3	4	2	0.289292
9	3	5	1	0.402749
9	3	5	2	0.720940
9	5	1	1	0.510132
9	5	1	2	1.087298
9	5	2	1	0.272696
9	5	2	2	0.341388
9	5	3	1	0.280358
9	5	3	2	0.346196
9	5	4	1	0.247702
9	5	4	2	0.293050
9	5	5	1	0.559473
9	5	5	2	1.264864
9	4	1	1	0.429105
9	4	1	2	0.807797
9	4	2	1	0.248895
9	4	2	2	0.290842
9	4	3	1	0.257483
9	4	3	2	0.312044
9	4	4	1	0.246353
9	4	4	2	0.289331
9	4	5	1	0.526181
9	4	5	2	1.144518
9	8	1	1	0.526181
9	8	1	2	1.144518
9	8	2	1	0.257070
9	8	2	2	0.306247
9	8	3	1	0.257483
9	8	3	2	0.312044
9	8	4	1	0.253223
9	8	4	2	0.298561
9	8	5	1	0.542629
9	8	5	2	1.203706
9	10	1	1	0.576712
9	10	1	2	1.327989
9	10	2	1	0.264155
9	10	2	2	0.321560
9	10	3	1	0.340328
9	10	3	2	0.413505
9	10	4	1	0.246187
9	10	4	2	0.287745
9	10	5	1	0.494484
9	10	5	2	1.032048
9	1	1	1	0.542629
9	1	1	2	1.203706
9	1	2	1	0.310446
9	1	2	2	0.439877
9	1	3	1	0.314502
9	1	3	2	0.386980
9	1	4	1	0.269695
9	1	4	2	0.334278
9	1	5	1	0.502258
9	1	5	2	1.059427
9	6	1	1	0.384103
9	6	1	2	0.660973
9	6	2	1	0.246870
9	6	2	2	0.290921
9	6	3	1	0.287219
9	6	3	2	0.355115
9	6	4	1	0.282583
9	6	4	2	0.365713
9	6	5	1	0.402749
9	6	5	2	0.720940
9	2	1	1	0.442913
9	2	1	2	0.854183
9	2	2	1	0.247870
9	2	2	2	0.289292
9	2	3	1	0.250401
9	2	3	2	0.298951
9	2	4	1	0.306076
9	2	4	2	0.427793
9	2	5	1	0.402749
9	2	5	2	0.720940
9	7	1	1	0.502258
9	7	1	2	1.059427
9	7	2	1	0.266846
9	7	2	2	0.327669
9	7	3	1	0.456768
9	7	3	2	0.513825
9	7	4	1	0.246504
9	7	4	2	0.287741
9	7	5	1	0.442913
9	7	5	2	0.854183
10	8	1	1	0.384103
10	8	1	2	0.660973
10	8	2	1	0.248870
10	8	2	2	0.295725
10	8	3	1	0.375359
10	8	3	2	0.446007
10	8	4	1	0.246187
10	8	4	2	0.287745
10	8	5	1	0.568043
10	8	5	2	1.296180
10	4	1	1	0.486811
10	4	1	2	1.005161
10	4	2	1	0.253223
10	4	2	2	0.298561
10	4	3	1	0.264683
10	4	3	2	0.323750
10	4	4	1	0.306076
10	4	4	2	0.427793
10	4	5	1	0.534355
10	4	5	2	1.173866
10	3	1	1	0.542629
10	3	1	2	1.203706
10	3	2	1	0.264155
10	3	2	2	0.321560
10	3	3	1	0.274382
10	3	3	2	0.338023
10	3	4	1	0.269695
10	3	4	2	0.334278
10	3	5	1	0.384103
10	3	5	2	0.660973
10	5	1	1	0.360770
10	5	1	2	0.587924
10	5	2	1	0.272696
10	5	2	2	0.341388
10	5	3	1	0.304119
10	5	3	2	0.375426
10	5	4	1	0.279143
10	5	4	2	0.357106
10	5	5	1	0.542629
10	5	5	2	1.203706
10	6	1	1	0.378104
10	6	1	2	0.641971
10	6	2	1	0.266846
10	6	2	2	0.327669
10	6	3	1	0.287219
10	6	3	2	0.355115
10	6	4	1	0.279143
10	6	4	2	0.357106
10	6	5	1	0.457136
10	6	5	2	0.902539
10	7	1	1	0.402749
10	7	1	2	0.720940
10	7	2	1	0.261626
10	7	2	2	0.315953
10	7	3	1	0.248870
10	7	3	2	0.295725
10	7	4	1	0.246187
10	7	4	2	0.287745
10	7	5	1	0.526181
10	7	5	2	1.144518
10	9	1	1	0.422358
10	9	1	2	0.785344
10	9	2	1	0.257070
10	9	2	2	0.306247
10	9	3	1	0.287219
10	9	3	2	0.355115
10	9	4	1	0.261626
10	9	4	2	0.315953
10	9	5	1	0.542629
10	9	5	2	1.203706
10	2	1	1	0.518107
10	2	1	2	1.115662
10	2	2	1	0.264155
10	2	2	2	0.321560
10	2	3	1	0.264683
10	2	3	2	0.323750
10	2	4	1	0.246353
10	2	4	2	0.289331
10	2	5	1	0.372215
10	2	5	2	0.623462
10	1	1	1	0.390210
10	1	1	2	0.680469
10	1	2	1	0.266846
10	1	2	2	0.327669
10	1	3	1	0.456768
10	1	3	2	0.513825
10	1	4	1	0.253223
10	1	4	2	0.298561
10	1	5	1	0.435957
10	1	5	2	0.830744
0	3	1	1	0.457136
0	3	1	2	0.902539
0	3	2	1	0.301833
0	3	2	2	0.416205
0	3	3	1	0.314502
0	3	3	2	0.386980
0	3	4	1	0.289880
0	3	4	2	0.384419
0	3	5	1	0.534355
0	3	5	2	1.173866
0	4	1	1	0.534355
0	4	1	2	1.173866
0	4	2	1	0.250135
0	4	2	2	0.292905
0	4	3	1	0.456768
0	4	3	2	0.513825
0	4	4	1	0.250135
0	4	4	2	0.292905
0	4	5	1	0.415716
0	4	5	2	0.763383
0	8	1	1	0.384103
0	8	1	2	0.660973
0	8	2	1	0.266846
0	8	2	2	0.327669
0	8	3	1	0.356456
0	8	3	2	0.428864
0	8	4	1	0.279143
0	8	4	2	0.357106
0	8	5	1	0.551002
0	8	5	2	1.234039
0	5	1	1	0.568043
0	5	1	2	1.296180
0	5	2	1	0.257070
0	5	2	2	0.306247
0	5	3	1	0.248870
0	5	3	2	0.295725
0	5	4	1	0.269695
0	5	4	2	0.334278
0	5	5	1	0.510132
0	5	5	2	1.087298
0	10	1	1	0.559473
0	10	1	2	1.264864
0	10	2	1	0.259262
0	10	2	2	0.310848
0	10	3	1	0.257483
0	10	3	2	0.312044
0	10	4	1	0.266846
0	10	4	2	0.327669
0	10	5	1	0.422358
0	10	5	2	0.785344
0	9	1	1	0.415716
0	9	1	2	0.763383
0	9	2	1	0.246187
0	9	2	2	0.287745
0	9	3	1	0.397708
0	9	3	2	0.465383
0	9	4	1	0.250135
0	9	4	2	0.292905
0	9	5	1	0.464402
0	9	5	2	0.927456
0	6	1	1	0.551002
0	6	1	2	1.234039
0	6	2	1	0.266846
0	6	2	2	0.327669
0	6	3	1	0.274382
0	6	3	2	0.338023
0	6	4	1	0.246504
0	6	4	2	0.287741
0	6	5	1	0.415716
0	6	5	2	0.763383
0	7	1	1	0.526181
0	7	1	2	1.144518
0	7	2	1	0.282583
0	7	2	2	0.365713
0	7	3	1	0.254672
0	7	3	2	0.307099
0	7	4	1	0.257070
0	7	4	2	0.306247
0	7	5	1	0.442913
0	7	5	2	0.854183
0	1	1	1	0.526181
0	1	1	2	1.144518
0	1	2	1	0.248870
0	1	2	2	0.295725
0	1	3	1	0.287219
0	1	3	2	0.355115
0	1	4	1	0.282583
0	1	4	2	0.365713
0	1	5	1	0.559473
0	1	5	2	1.264864
0	2	1	1	0.576712
0	2	1	2	1.327989
0	2	2	1	0.275847
0	2	2	2	0.348998
0	2	3	1	0.257483
0	2	3	2	0.312044
0	2	4	1	0.297717
0	2	4	2	0.405114
0	2	5	1	0.534355
0	2	5	2	1.173866
3	0	1	1	0.429105
3	0	1	2	0.807797
3	0	2	1	0.261626
3	0	2	2	0.315953
3	0	3	1	0.314502
3	0	3	2	0.386980
3	0	4	1	0.246504
3	0	4	2	0.287741
3	0	5	1	0.568043
3	0	5	2	1.296180
4	0	1	1	0.422358
4	0	1	2	0.785344
4	0	2	1	0.259262
4	0	2	2	0.310848
4	0	3	1	0.280358
4	0	3	2	0.346196
4	0	4	1	0.259262
4	0	4	2	0.310848
4	0	5	1	0.402749
4	0	5	2	0.720940
8	0	1	1	0.559473
8	0	1	2	1.264864
8	0	2	1	0.259262
8	0	2	2	0.310848
8	0	3	1	0.260803
8	0	3	2	0.317588
8	0	4	1	0.250135
8	0	4	2	0.292905
8	0	5	1	0.559473
8	0	5	2	1.264864
10	0	1	1	0.464402
10	0	1	2	0.927456
10	0	2	1	0.257070
10	0	2	2	0.306247
10	0	3	1	0.264683
10	0	3	2	0.323750
10	0	4	1	0.257070
10	0	4	2	0.306247
10	0	5	1	0.390210
10	0	5	2	0.680469
5	0	1	1	0.502258
5	0	1	2	1.059427
5	0	2	1	0.248895
5	0	2	2	0.290842
5	0	3	1	0.257483
5	0	3	2	0.312044
5	0	4	1	0.246504
5	0	4	2	0.287741
5	0	5	1	0.494484
5	0	5	2	1.032048
9	0	1	1	0.422358
9	0	1	2	0.785344
9	0	2	1	0.247702
9	0	2	2	0.293050
9	0	3	1	0.254672
9	0	3	2	0.307099
9	0	4	1	0.247702
9	0	4	2	0.293050
9	0	5	1	0.559473
9	0	5	2	1.264864
6	0	1	1	0.422358
6	0	1	2	0.785344
6	0	2	1	0.251580
6	0	2	2	0.295478
6	0	3	1	0.314502
6	0	3	2	0.386980
6	0	4	1	0.301833
6	0	4	2	0.416205
6	0	5	1	0.559473
6	0	5	2	1.264864
7	0	1	1	0.518107
7	0	1	2	1.115662
7	0	2	1	0.306076
7	0	2	2	0.427793
7	0	3	1	0.252324
7	0	3	2	0.302739
7	0	4	1	0.293733
7	0	4	2	0.394518
7	0	5	1	0.360770
7	0	5	2	0.587924
1	0	1	1	0.435957
1	0	1	2	0.830744
1	0	2	1	0.247870
1	0	2	2	0.289292
1	0	3	1	0.264683
1	0	3	2	0.323750
1	0	4	1	0.301833
1	0	4	2	0.416205
1	0	5	1	0.551002
1	0	5	2	1.234039
2	0	1	1	0.449973
2	0	1	2	0.878115
2	0	2	1	0.279143
2	0	2	2	0.357106
2	0	3	1	0.356456
2	0	3	2	0.428864
2	0	4	1	0.255055
2	0	4	2	0.302151
2	0	5	1	0.429105
2	0	5	2	0.807797
;
